84482827883017092965012,7,1,2,011,1,1,2,05,2,1,2,015,15,1,2,08,6,1,2,06,11,1,2,05,15,1,2,01,3,1,2,015,3,1,2,010,11,1,2,09,13,1,2,014,14,1,2,014,9,1,2,013,1,1,2,04,6,1,2,012,13,1,2,05,15,1,2,012,11,1,2,011,15,1,2,09,11,1,2,010,13,1,2,04,10,1,2,03,11,1,2,010,1,1,2,06,10,1,2,03,7,1,2,015,13,1,2,04,2,1,2,012,4,1,2,011,7,1,2,02,3,1,2,011,7,1,2,012,2,1,2,09,10,1,2,05,8,1,2,011,4,1,2,09,5,1,2,07,12,1,2,03,8,1,2,04,11,1,2,08,10,1,2,012,10,1,2,03,5,1,2,03,15,1,2,02,14,1,2,06,13,1,2,07,5,1,2,01,12,1,2,014,5,1,2,01,7,1,2,0